; benchmark generated from python API
(set-info :status unknown)
(declare-fun strlen_85_64 () (_ BitVec 64))
(declare-fun args_1_8 () (_ BitVec 8))
(declare-fun strlen_83_64 () (_ BitVec 64))
(declare-fun strncmp_ret_84_32 () (_ BitVec 32))
(declare-fun strncmp_ret_86_32 () (_ BitVec 32))
(declare-fun filesize_file_0_/proc/self/loginuid_88_64 () (_ BitVec 64))
(declare-fun syscall_stub_ioctl_95_32 () (_ BitVec 32))
(declare-fun syscall_stub_newfstatat_124_64 () (_ BitVec 64))
(declare-fun syscall_stub_readlink_160_64 () (_ BitVec 64))
(declare-fun mem_7fffffffffef420_174_8 () (_ BitVec 8))
(declare-fun syscall_stub_newfstatat_220_64 () (_ BitVec 64))
(declare-fun mem_7fffffffffef038_297_64 () (_ BitVec 64))
(declare-fun mem_7fffffffffeefa8_298_64 () (_ BitVec 64))
(declare-fun mem_7fffffffffeefa0_344_64 () (_ BitVec 64))
(declare-fun mem_7fffffffffef030_345_64 () (_ BitVec 64))
(declare-fun mem_7fffffffffef048_398_32 () (_ BitVec 32))
(declare-fun mem_7fffffffffeefc8_430_64 () (_ BitVec 64))
(declare-fun mem_7fffffffffef058_431_64 () (_ BitVec 64))
(declare-fun strlen_986_64 () (_ BitVec 64))
(declare-fun mem_7fffffffffef425_984_64 () (_ BitVec 64))
(declare-fun access_2286_32 () (_ BitVec 32))
(declare-fun access_3098_32 () (_ BitVec 32))
(declare-fun strlen_5312_64 () (_ BitVec 64))
(declare-fun mem_2c_5311_264 () (_ BitVec 264))
(declare-fun strlen_8285_64 () (_ BitVec 64))
(declare-fun mem_7fffffffffef740_6391_248 () (_ BitVec 248))
(assert
 (let ((?x751 (bvadd (_ bv576460752303357826 64) strlen_85_64)))
 (let (($x69 (= (_ bv0 8) args_1_8)))
 (let ((?x46 (ite $x69 (_ bv576460752303357826 64) (_ bv576460752303357827 64))))
 (= ?x46 ?x751)))))
(assert
 (let ((?x101 (bvadd (_ bv576460752303357826 64) strlen_83_64)))
 (let (($x69 (= (_ bv0 8) args_1_8)))
 (let ((?x46 (ite $x69 (_ bv576460752303357826 64) (_ bv576460752303357827 64))))
 (= ?x46 ?x101)))))
(assert
 (let (($x104 (bvule (_ bv2 64) strlen_83_64)))
 (let (($x48 (= (_ bv2 64) strlen_83_64)))
 (let (($x122 (or $x48 $x104)))
 (let (($x123 (not $x122)))
 (let (($x57 (= (_ bv45 8) args_1_8)))
 (let (($x121 (not $x57)))
 (or $x121 $x123))))))))
(assert
 (= (_ bv1 32) strncmp_ret_84_32))
(assert
 (= (_ bv1 32) strncmp_ret_86_32))
(assert
 true)
(assert
 (let (($x1210 (bvsge (_ bv0 64) filesize_file_0_/proc/self/loginuid_88_64)))
 (let ((?x1217 (ite $x1210 (_ bv0 64) filesize_file_0_/proc/self/loginuid_88_64)))
 (let ((?x1236 ((_ extract 3 0) filesize_file_0_/proc/self/loginuid_88_64)))
 (let ((?x99 (ite $x1210 (_ bv0 4) ?x1236)))
 (let (($x1110 (bvule ?x99 (_ bv12 4))))
 (let ((?x1229 ((_ extract 63 4) filesize_file_0_/proc/self/loginuid_88_64)))
 (let (($x523 (= (_ bv0 60) ?x1229)))
 (let (($x516 (or $x1210 $x523)))
 (let (($x975 (and $x516 $x1110)))
 (let ((?x1169 (ite $x975 ?x1217 (_ bv12 64))))
 (= (_ bv12 64) ?x1169))))))))))))
(assert
 (= (_ bv0 32) syscall_stub_ioctl_95_32))
(assert
 (let ((?x3122 ((_ extract 31 0) syscall_stub_newfstatat_124_64)))
 (bvule ?x3122 (_ bv4294963200 32))))
(assert
 (= (_ bv13 64) syscall_stub_readlink_160_64))
(assert
 (= (_ bv47 8) mem_7fffffffffef420_174_8))
(assert
 (let ((?x116194 ((_ extract 31 0) syscall_stub_newfstatat_220_64)))
 (bvule ?x116194 (_ bv4294963200 32))))
(assert
 (= mem_7fffffffffeefa8_298_64 mem_7fffffffffef038_297_64))
(assert
 (= mem_7fffffffffef030_345_64 mem_7fffffffffeefa0_344_64))
(assert
 (let ((?x278280 ((_ extract 15 12) mem_7fffffffffef048_398_32)))
 (= (_ bv2 4) ?x278280)))
(assert
 (= mem_7fffffffffef058_431_64 mem_7fffffffffeefc8_430_64))
(assert
 (let ((?x448396 (bvadd (_ bv576460752303354917 64) strlen_986_64)))
 (let ((?x448386 ((_ extract 7 0) mem_7fffffffffef425_984_64)))
 (let (($x448379 (= (_ bv0 8) ?x448386)))
 (let ((?x116240 (ite $x448379 (_ bv576460752303354924 64) (_ bv576460752303354925 64))))
 (let ((?x448338 ((_ extract 15 8) mem_7fffffffffef425_984_64)))
 (let (($x442876 (= (_ bv0 8) ?x448338)))
 (let ((?x119400 (ite $x442876 (_ bv576460752303354923 64) ?x116240)))
 (let ((?x448374 ((_ extract 23 16) mem_7fffffffffef425_984_64)))
 (let (($x446240 (= (_ bv0 8) ?x448374)))
 (let ((?x276917 (ite $x446240 (_ bv576460752303354922 64) ?x119400)))
 (let ((?x442858 ((_ extract 31 24) mem_7fffffffffef425_984_64)))
 (let (($x448342 (= (_ bv0 8) ?x442858)))
 (let ((?x276826 (ite $x448342 (_ bv576460752303354921 64) ?x276917)))
 (let ((?x446360 ((_ extract 39 32) mem_7fffffffffef425_984_64)))
 (let (($x448387 (= (_ bv0 8) ?x446360)))
 (let ((?x119860 (ite $x448387 (_ bv576460752303354920 64) ?x276826)))
 (let ((?x448362 ((_ extract 47 40) mem_7fffffffffef425_984_64)))
 (let (($x446494 (= (_ bv0 8) ?x448362)))
 (let ((?x117259 (ite $x446494 (_ bv576460752303354919 64) ?x119860)))
 (let ((?x448389 ((_ extract 55 48) mem_7fffffffffef425_984_64)))
 (let (($x442868 (= (_ bv0 8) ?x448389)))
 (let ((?x119730 (ite $x442868 (_ bv576460752303354918 64) ?x117259)))
 (let ((?x446462 ((_ extract 63 56) mem_7fffffffffef425_984_64)))
 (let (($x446502 (= (_ bv0 8) ?x446462)))
 (let ((?x116346 (ite $x446502 (_ bv576460752303354917 64) ?x119730)))
 (= ?x116346 ?x448396)))))))))))))))))))))))))))
(assert
 (let ((?x448467 (bvadd (_ bv1 64) strlen_986_64)))
 (let ((?x449136 ((_ extract 63 4) ?x448467)))
 (= (_ bv0 60) ?x449136))))
(assert
 (let ((?x449132 ((_ extract 3 0) strlen_986_64)))
 (let ((?x446635 (bvadd (_ bv1 4) ?x449132)))
 (bvule ?x446635 (_ bv9 4)))))
(assert
 (let ((?x448467 (bvadd (_ bv1 64) strlen_986_64)))
 (let (($x448493 (bvule (_ bv31 64) strlen_986_64)))
 (let (($x448643 (bvule strlen_986_64 (_ bv18446744073709551614 64))))
 (let (($x448969 (and $x448643 $x448493)))
 (let ((?x448926 (ite $x448969 (_ bv32 64) ?x448467)))
 (bvule (_ bv1 64) ?x448926)))))))
(assert
 (let (($x448493 (bvule (_ bv31 64) strlen_986_64)))
 (let (($x448726 (not $x448493)))
 (let (($x448643 (bvule strlen_986_64 (_ bv18446744073709551614 64))))
 (let (($x448713 (not $x448643)))
 (or $x448713 $x448726))))))
(assert
 (= (_ bv0 32) access_2286_32))
(assert
 (= (_ bv4294967295 32) access_3098_32))
(assert
 (= (_ bv31 64) strlen_5312_64))
(assert
 (let ((?x1289887 ((_ extract 15 8) mem_2c_5311_264)))
 (= (_ bv0 8) ?x1289887)))
(assert
 (let ((?x1289885 ((_ extract 23 16) mem_2c_5311_264)))
 (let (($x1289884 (= (_ bv0 8) ?x1289885)))
 (not $x1289884))))
(assert
 (let ((?x1289882 ((_ extract 31 24) mem_2c_5311_264)))
 (let (($x1289881 (= (_ bv0 8) ?x1289882)))
 (not $x1289881))))
(assert
 (let ((?x1289880 ((_ extract 39 32) mem_2c_5311_264)))
 (let (($x1289879 (= (_ bv0 8) ?x1289880)))
 (not $x1289879))))
(assert
 (let ((?x1289878 ((_ extract 47 40) mem_2c_5311_264)))
 (let (($x1289876 (= (_ bv0 8) ?x1289878)))
 (not $x1289876))))
(assert
 (let ((?x1289875 ((_ extract 55 48) mem_2c_5311_264)))
 (let (($x1289874 (= (_ bv0 8) ?x1289875)))
 (not $x1289874))))
(assert
 (let ((?x1289872 ((_ extract 63 56) mem_2c_5311_264)))
 (let (($x1289871 (= (_ bv0 8) ?x1289872)))
 (not $x1289871))))
(assert
 (let ((?x1289870 ((_ extract 71 64) mem_2c_5311_264)))
 (let (($x1289869 (= (_ bv0 8) ?x1289870)))
 (not $x1289869))))
(assert
 (let ((?x1289868 ((_ extract 79 72) mem_2c_5311_264)))
 (let (($x1289867 (= (_ bv0 8) ?x1289868)))
 (not $x1289867))))
(assert
 (let ((?x1289865 ((_ extract 87 80) mem_2c_5311_264)))
 (let (($x1289864 (= (_ bv0 8) ?x1289865)))
 (not $x1289864))))
(assert
 (let ((?x1289862 ((_ extract 95 88) mem_2c_5311_264)))
 (let (($x1289861 (= (_ bv0 8) ?x1289862)))
 (not $x1289861))))
(assert
 (let ((?x1289860 ((_ extract 103 96) mem_2c_5311_264)))
 (let (($x1289859 (= (_ bv0 8) ?x1289860)))
 (not $x1289859))))
(assert
 (let ((?x1289858 ((_ extract 111 104) mem_2c_5311_264)))
 (let (($x1289857 (= (_ bv0 8) ?x1289858)))
 (not $x1289857))))
(assert
 (let ((?x1289856 ((_ extract 119 112) mem_2c_5311_264)))
 (let (($x1289854 (= (_ bv0 8) ?x1289856)))
 (not $x1289854))))
(assert
 (let ((?x1289852 ((_ extract 127 120) mem_2c_5311_264)))
 (let (($x1289851 (= (_ bv0 8) ?x1289852)))
 (not $x1289851))))
(assert
 (let ((?x1289850 ((_ extract 135 128) mem_2c_5311_264)))
 (let (($x1289849 (= (_ bv0 8) ?x1289850)))
 (not $x1289849))))
(assert
 (let ((?x1289848 ((_ extract 143 136) mem_2c_5311_264)))
 (let (($x1289847 (= (_ bv0 8) ?x1289848)))
 (not $x1289847))))
(assert
 (let ((?x1289846 ((_ extract 151 144) mem_2c_5311_264)))
 (let (($x1289845 (= (_ bv0 8) ?x1289846)))
 (not $x1289845))))
(assert
 (let ((?x1289842 ((_ extract 159 152) mem_2c_5311_264)))
 (let (($x1289841 (= (_ bv0 8) ?x1289842)))
 (not $x1289841))))
(assert
 (let ((?x1289840 ((_ extract 167 160) mem_2c_5311_264)))
 (let (($x1289839 (= (_ bv0 8) ?x1289840)))
 (not $x1289839))))
(assert
 (let ((?x1289838 ((_ extract 175 168) mem_2c_5311_264)))
 (let (($x1289837 (= (_ bv0 8) ?x1289838)))
 (not $x1289837))))
(assert
 (let ((?x1289836 ((_ extract 183 176) mem_2c_5311_264)))
 (let (($x1289835 (= (_ bv0 8) ?x1289836)))
 (not $x1289835))))
(assert
 (let ((?x1289834 ((_ extract 191 184) mem_2c_5311_264)))
 (let (($x1289831 (= (_ bv0 8) ?x1289834)))
 (not $x1289831))))
(assert
 (let ((?x1289830 ((_ extract 199 192) mem_2c_5311_264)))
 (let (($x1289829 (= (_ bv0 8) ?x1289830)))
 (not $x1289829))))
(assert
 (let ((?x1289828 ((_ extract 207 200) mem_2c_5311_264)))
 (let (($x1289827 (= (_ bv0 8) ?x1289828)))
 (not $x1289827))))
(assert
 (let ((?x1289826 ((_ extract 215 208) mem_2c_5311_264)))
 (let (($x1289825 (= (_ bv0 8) ?x1289826)))
 (not $x1289825))))
(assert
 (let ((?x1289824 ((_ extract 223 216) mem_2c_5311_264)))
 (let (($x1289822 (= (_ bv0 8) ?x1289824)))
 (not $x1289822))))
(assert
 (let ((?x1289820 ((_ extract 231 224) mem_2c_5311_264)))
 (let (($x1289819 (= (_ bv0 8) ?x1289820)))
 (not $x1289819))))
(assert
 (let ((?x1289818 ((_ extract 239 232) mem_2c_5311_264)))
 (let (($x1289817 (= (_ bv0 8) ?x1289818)))
 (not $x1289817))))
(assert
 (let ((?x1289816 ((_ extract 247 240) mem_2c_5311_264)))
 (let (($x1289815 (= (_ bv0 8) ?x1289816)))
 (not $x1289815))))
(assert
 (let ((?x1289814 ((_ extract 255 248) mem_2c_5311_264)))
 (let (($x1289812 (= (_ bv0 8) ?x1289814)))
 (not $x1289812))))
(assert
 (let ((?x1289807 ((_ extract 263 256) mem_2c_5311_264)))
 (let (($x1289808 (= (_ bv0 8) ?x1289807)))
 (not $x1289808))))
(assert
 (let ((?x1354994 ((_ extract 7 0) mem_7fffffffffef740_6391_248)))
 (let ((?x1353889 ((_ extract 15 0) mem_7fffffffffef740_6391_248)))
 (let ((?x1355786 ((_ extract 23 0) mem_7fffffffffef740_6391_248)))
 (let ((?x1355319 ((_ extract 31 0) mem_7fffffffffef740_6391_248)))
 (let ((?x1356871 ((_ extract 39 0) mem_7fffffffffef740_6391_248)))
 (let ((?x1354515 ((_ extract 47 0) mem_7fffffffffef740_6391_248)))
 (let ((?x1357680 ((_ extract 55 0) mem_7fffffffffef740_6391_248)))
 (let ((?x1352116 ((_ extract 63 0) mem_7fffffffffef740_6391_248)))
 (let ((?x1355051 ((_ extract 71 0) mem_7fffffffffef740_6391_248)))
 (let ((?x1356906 ((_ extract 79 0) mem_7fffffffffef740_6391_248)))
 (let ((?x1354112 ((_ extract 87 0) mem_7fffffffffef740_6391_248)))
 (let ((?x1358005 ((_ extract 95 0) mem_7fffffffffef740_6391_248)))
 (let ((?x1355422 ((_ extract 103 0) mem_7fffffffffef740_6391_248)))
 (let ((?x1355577 ((_ extract 111 0) mem_7fffffffffef740_6391_248)))
 (let ((?x481956 ((_ extract 119 0) mem_7fffffffffef740_6391_248)))
 (let ((?x1356432 ((_ extract 127 0) mem_7fffffffffef740_6391_248)))
 (let ((?x563258 ((_ extract 135 0) mem_7fffffffffef740_6391_248)))
 (let ((?x1357944 ((_ extract 143 0) mem_7fffffffffef740_6391_248)))
 (let ((?x1355493 ((_ extract 151 0) mem_7fffffffffef740_6391_248)))
 (let ((?x1356637 ((_ extract 159 0) mem_7fffffffffef740_6391_248)))
 (let ((?x1357570 ((_ extract 167 0) mem_7fffffffffef740_6391_248)))
 (let ((?x1355266 ((_ extract 175 0) mem_7fffffffffef740_6391_248)))
 (let ((?x1356512 ((_ extract 183 0) mem_7fffffffffef740_6391_248)))
 (let ((?x1354884 ((_ extract 191 0) mem_7fffffffffef740_6391_248)))
 (let ((?x1355536 ((_ extract 199 0) mem_7fffffffffef740_6391_248)))
 (let ((?x1353719 ((_ extract 207 0) mem_7fffffffffef740_6391_248)))
 (let ((?x1357148 ((_ extract 215 0) mem_7fffffffffef740_6391_248)))
 (let ((?x1357034 ((_ extract 223 0) mem_7fffffffffef740_6391_248)))
 (let ((?x1356142 ((_ extract 231 0) mem_7fffffffffef740_6391_248)))
 (let ((?x1342926 ((_ extract 239 0) mem_7fffffffffef740_6391_248)))
 (let ((?x1343333 ((_ extract 263 16) mem_2c_5311_264)))
 (let (($x1343387 (= (_ bv1 64) strlen_5312_64)))
 (let ((?x1354664 (ite $x1343387 ?x1343333 mem_7fffffffffef740_6391_248)))
 (let ((?x1356949 ((_ extract 247 240) ?x1354664)))
 (let ((?x1356813 (concat ?x1356949 ?x1342926)))
 (let (($x1295854 (= (_ bv2 64) strlen_5312_64)))
 (let ((?x1355547 (ite $x1295854 ?x1343333 ?x1356813)))
 (let ((?x1354423 ((_ extract 247 232) ?x1355547)))
 (let ((?x1357402 (concat ?x1354423 ?x1356142)))
 (let (($x1343384 (= (_ bv3 64) strlen_5312_64)))
 (let ((?x1356337 (ite $x1343384 ?x1343333 ?x1357402)))
 (let ((?x1356174 ((_ extract 247 224) ?x1356337)))
 (let ((?x1357814 (concat ?x1356174 ?x1357034)))
 (let (($x1343344 (= (_ bv4 64) strlen_5312_64)))
 (let ((?x1355275 (ite $x1343344 ?x1343333 ?x1357814)))
 (let ((?x480424 ((_ extract 247 216) ?x1355275)))
 (let ((?x1357147 (concat ?x480424 ?x1357148)))
 (let (($x1343381 (= (_ bv5 64) strlen_5312_64)))
 (let ((?x481930 (ite $x1343381 ?x1343333 ?x1357147)))
 (let ((?x1352255 ((_ extract 247 208) ?x481930)))
 (let ((?x1357017 (concat ?x1352255 ?x1353719)))
 (let (($x1342963 (= (_ bv6 64) strlen_5312_64)))
 (let ((?x1342191 (ite $x1342963 ?x1343333 ?x1357017)))
 (let ((?x1357823 ((_ extract 247 200) ?x1342191)))
 (let ((?x1352950 (concat ?x1357823 ?x1355536)))
 (let (($x1343377 (= (_ bv7 64) strlen_5312_64)))
 (let ((?x1352832 (ite $x1343377 ?x1343333 ?x1352950)))
 (let ((?x1356615 ((_ extract 247 192) ?x1352832)))
 (let ((?x1352094 (concat ?x1356615 ?x1354884)))
 (let (($x1343347 (= (_ bv8 64) strlen_5312_64)))
 (let ((?x1355982 (ite $x1343347 ?x1343333 ?x1352094)))
 (let ((?x1354642 ((_ extract 247 184) ?x1355982)))
 (let ((?x1356213 (concat ?x1354642 ?x1356512)))
 (let (($x1343374 (= (_ bv9 64) strlen_5312_64)))
 (let ((?x739826 (ite $x1343374 ?x1343333 ?x1356213)))
 (let ((?x1357152 ((_ extract 247 176) ?x739826)))
 (let ((?x1336715 (concat ?x1357152 ?x1355266)))
 (let (($x512623 (= (_ bv10 64) strlen_5312_64)))
 (let ((?x1357127 (ite $x512623 ?x1343333 ?x1336715)))
 (let ((?x1358387 ((_ extract 247 168) ?x1357127)))
 (let ((?x1352063 (concat ?x1358387 ?x1357570)))
 (let (($x517980 (= (_ bv11 64) strlen_5312_64)))
 (let ((?x1353794 (ite $x517980 ?x1343333 ?x1352063)))
 (let ((?x1354781 ((_ extract 247 160) ?x1353794)))
 (let ((?x1353683 (concat ?x1354781 ?x1356637)))
 (let (($x1294330 (= (_ bv12 64) strlen_5312_64)))
 (let ((?x1341564 (ite $x1294330 ?x1343333 ?x1353683)))
 (let ((?x1354923 ((_ extract 247 152) ?x1341564)))
 (let ((?x1357356 (concat ?x1354923 ?x1355493)))
 (let (($x1295658 (= (_ bv13 64) strlen_5312_64)))
 (let ((?x1341767 (ite $x1295658 ?x1343333 ?x1357356)))
 (let ((?x1357607 ((_ extract 247 144) ?x1341767)))
 (let ((?x1355569 (concat ?x1357607 ?x1357944)))
 (let (($x510734 (= (_ bv14 64) strlen_5312_64)))
 (let ((?x1355579 (ite $x510734 ?x1343333 ?x1355569)))
 (let ((?x1341156 ((_ extract 247 136) ?x1355579)))
 (let ((?x1355523 (concat ?x1341156 ?x563258)))
 (let (($x1343366 (= (_ bv15 64) strlen_5312_64)))
 (let ((?x1356523 (ite $x1343366 ?x1343333 ?x1355523)))
 (let ((?x1356366 ((_ extract 247 128) ?x1356523)))
 (let ((?x1357177 (concat ?x1356366 ?x1356432)))
 (let (($x1295845 (= (_ bv16 64) strlen_5312_64)))
 (let ((?x1341995 (ite $x1295845 ?x1343333 ?x1357177)))
 (let ((?x1356941 ((_ extract 247 120) ?x1341995)))
 (let ((?x1355984 (concat ?x1356941 ?x481956)))
 (let (($x1343363 (= (_ bv17 64) strlen_5312_64)))
 (let ((?x1355348 (ite $x1343363 ?x1343333 ?x1355984)))
 (let ((?x1357569 ((_ extract 247 112) ?x1355348)))
 (let ((?x1355382 (concat ?x1357569 ?x1355577)))
 (let (($x1343040 (= (_ bv18 64) strlen_5312_64)))
 (let ((?x1357438 (ite $x1343040 ?x1343333 ?x1355382)))
 (let ((?x1355756 ((_ extract 247 104) ?x1357438)))
 (let ((?x1357854 (concat ?x1355756 ?x1355422)))
 (let (($x1343361 (= (_ bv19 64) strlen_5312_64)))
 (let ((?x1350978 (ite $x1343361 ?x1343333 ?x1357854)))
 (let ((?x1341890 ((_ extract 247 96) ?x1350978)))
 (let ((?x1357151 (concat ?x1341890 ?x1358005)))
 (let (($x497355 (= (_ bv20 64) strlen_5312_64)))
 (let ((?x1357707 (ite $x497355 ?x1343333 ?x1357151)))
 (let ((?x1341979 ((_ extract 247 88) ?x1357707)))
 (let ((?x1358025 (concat ?x1341979 ?x1354112)))
 (let (($x1343359 (= (_ bv21 64) strlen_5312_64)))
 (let ((?x1355255 (ite $x1343359 ?x1343333 ?x1358025)))
 (let ((?x1356961 ((_ extract 247 80) ?x1355255)))
 (let ((?x1357888 (concat ?x1356961 ?x1356906)))
 (let (($x1343310 (= (_ bv22 64) strlen_5312_64)))
 (let ((?x1357408 (ite $x1343310 ?x1343333 ?x1357888)))
 (let ((?x1356954 ((_ extract 247 72) ?x1357408)))
 (let ((?x1357865 (concat ?x1356954 ?x1355051)))
 (let (($x1343356 (= (_ bv23 64) strlen_5312_64)))
 (let ((?x1357103 (ite $x1343356 ?x1343333 ?x1357865)))
 (let ((?x1357683 ((_ extract 247 64) ?x1357103)))
 (let ((?x1356312 (concat ?x1357683 ?x1352116)))
 (let (($x1343250 (= (_ bv24 64) strlen_5312_64)))
 (let ((?x1357100 (ite $x1343250 ?x1343333 ?x1356312)))
 (let ((?x1357864 ((_ extract 247 56) ?x1357100)))
 (let ((?x1357733 (concat ?x1357864 ?x1357680)))
 (let (($x1342638 (= (_ bv25 64) strlen_5312_64)))
 (let ((?x1341480 (ite $x1342638 ?x1343333 ?x1357733)))
 (let ((?x1357675 ((_ extract 247 48) ?x1341480)))
 (let ((?x1358347 (concat ?x1357675 ?x1354515)))
 (let (($x1343256 (= (_ bv26 64) strlen_5312_64)))
 (let ((?x1357118 (ite $x1343256 ?x1343333 ?x1358347)))
 (let ((?x1357179 ((_ extract 247 40) ?x1357118)))
 (let ((?x1353335 (concat ?x1357179 ?x1356871)))
 (let (($x1343351 (= (_ bv27 64) strlen_5312_64)))
 (let ((?x1341299 (ite $x1343351 ?x1343333 ?x1353335)))
 (let ((?x891797 ((_ extract 247 32) ?x1341299)))
 (let ((?x1355218 (concat ?x891797 ?x1355319)))
 (let (($x1342353 (= (_ bv28 64) strlen_5312_64)))
 (let ((?x1356885 (ite $x1342353 ?x1343333 ?x1355218)))
 (let ((?x1357101 ((_ extract 247 24) ?x1356885)))
 (let ((?x1341820 (concat ?x1357101 ?x1355786)))
 (let (($x1343348 (= (_ bv29 64) strlen_5312_64)))
 (let ((?x1342467 (ite $x1343348 ?x1343333 ?x1341820)))
 (let ((?x1358299 ((_ extract 247 16) ?x1342467)))
 (let ((?x1357731 (concat ?x1358299 ?x1353889)))
 (let (($x1295897 (= (_ bv30 64) strlen_5312_64)))
 (let ((?x1355467 (ite $x1295897 ?x1343333 ?x1357731)))
 (let ((?x1341863 ((_ extract 247 8) ?x1355467)))
 (let ((?x1356811 (concat ?x1341863 ?x1354994)))
 (let (($x1343065 (= (_ bv31 64) strlen_5312_64)))
 (let ((?x1341732 (ite $x1343065 ?x1343333 ?x1356811)))
 (let ((?x1586169 ((_ extract 7 0) ?x1341732)))
 (let (($x1586174 (= (_ bv0 8) ?x1586169)))
 (let ((?x1328974 (ite $x1586174 (_ bv576460752303355742 64) (_ bv576460752303355743 64))))
 (let ((?x1585925 ((_ extract 15 8) ?x1341732)))
 (let (($x1586150 (= (_ bv0 8) ?x1585925)))
 (let ((?x1585621 (ite $x1586150 (_ bv576460752303355741 64) ?x1328974)))
 (let ((?x1586075 ((_ extract 23 16) ?x1341732)))
 (let (($x1586069 (= (_ bv0 8) ?x1586075)))
 (let ((?x1586045 (ite $x1586069 (_ bv576460752303355740 64) ?x1585621)))
 (let ((?x1586160 ((_ extract 31 24) ?x1341732)))
 (let (($x1586028 (= (_ bv0 8) ?x1586160)))
 (let ((?x1356435 (ite $x1586028 (_ bv576460752303355739 64) ?x1586045)))
 (let ((?x1586168 ((_ extract 39 32) ?x1341732)))
 (let (($x1585862 (= (_ bv0 8) ?x1586168)))
 (let ((?x1330148 (ite $x1585862 (_ bv576460752303355738 64) ?x1356435)))
 (let ((?x1585590 ((_ extract 47 40) ?x1341732)))
 (let (($x1585592 (= (_ bv0 8) ?x1585590)))
 (let ((?x1329230 (ite $x1585592 (_ bv576460752303355737 64) ?x1330148)))
 (let ((?x1586093 ((_ extract 55 48) ?x1341732)))
 (let (($x1358209 (= (_ bv0 8) ?x1586093)))
 (let ((?x1329247 (ite $x1358209 (_ bv576460752303355736 64) ?x1329230)))
 (let ((?x1585537 ((_ extract 63 56) ?x1341732)))
 (let (($x1358196 (= (_ bv0 8) ?x1585537)))
 (let ((?x1330246 (ite $x1358196 (_ bv576460752303355735 64) ?x1329247)))
 (let ((?x1585908 ((_ extract 71 64) ?x1341732)))
 (let (($x1357905 (= (_ bv0 8) ?x1585908)))
 (let ((?x1354903 (ite $x1357905 (_ bv576460752303355734 64) ?x1330246)))
 (let ((?x1585531 ((_ extract 79 72) ?x1341732)))
 (let (($x1357834 (= (_ bv0 8) ?x1585531)))
 (let ((?x1341477 (ite $x1357834 (_ bv576460752303355733 64) ?x1354903)))
 (let ((?x1586127 ((_ extract 87 80) ?x1341732)))
 (let (($x1357561 (= (_ bv0 8) ?x1586127)))
 (let ((?x1328959 (ite $x1357561 (_ bv576460752303355732 64) ?x1341477)))
 (let ((?x1585886 ((_ extract 95 88) ?x1341732)))
 (let (($x1357355 (= (_ bv0 8) ?x1585886)))
 (let ((?x1586054 (ite $x1357355 (_ bv576460752303355731 64) ?x1328959)))
 (let ((?x1329233 ((_ extract 103 96) ?x1341732)))
 (let (($x1357348 (= (_ bv0 8) ?x1329233)))
 (let ((?x1586186 (ite $x1357348 (_ bv576460752303355730 64) ?x1586054)))
 (let ((?x1585567 ((_ extract 111 104) ?x1341732)))
 (let (($x1357024 (= (_ bv0 8) ?x1585567)))
 (let ((?x1586030 (ite $x1357024 (_ bv576460752303355729 64) ?x1586186)))
 (let ((?x1586146 ((_ extract 119 112) ?x1341732)))
 (let (($x1356373 (= (_ bv0 8) ?x1586146)))
 (let ((?x1585877 (ite $x1356373 (_ bv576460752303355728 64) ?x1586030)))
 (let ((?x1586080 ((_ extract 127 120) ?x1341732)))
 (let (($x1356277 (= (_ bv0 8) ?x1586080)))
 (let ((?x1586060 (ite $x1356277 (_ bv576460752303355727 64) ?x1585877)))
 (let ((?x1585789 ((_ extract 135 128) ?x1341732)))
 (let (($x1355445 (= (_ bv0 8) ?x1585789)))
 (let ((?x1585929 (ite $x1355445 (_ bv576460752303355726 64) ?x1586060)))
 (let ((?x1586090 ((_ extract 143 136) ?x1341732)))
 (let (($x1355384 (= (_ bv0 8) ?x1586090)))
 (let ((?x1585838 (ite $x1355384 (_ bv576460752303355725 64) ?x1585929)))
 (let ((?x1586151 ((_ extract 151 144) ?x1341732)))
 (let (($x1354862 (= (_ bv0 8) ?x1586151)))
 (let ((?x1586100 (ite $x1354862 (_ bv576460752303355724 64) ?x1585838)))
 (let ((?x1585950 ((_ extract 159 152) ?x1341732)))
 (let (($x1353030 (= (_ bv0 8) ?x1585950)))
 (let ((?x1585527 (ite $x1353030 (_ bv576460752303355723 64) ?x1586100)))
 (let ((?x1586048 ((_ extract 167 160) ?x1341732)))
 (let (($x1351812 (= (_ bv0 8) ?x1586048)))
 (let ((?x1586122 (ite $x1351812 (_ bv576460752303355722 64) ?x1585527)))
 (let ((?x1585804 ((_ extract 175 168) ?x1341732)))
 (let (($x1328975 (= (_ bv0 8) ?x1585804)))
 (let ((?x1586137 (ite $x1328975 (_ bv576460752303355721 64) ?x1586122)))
 (let ((?x1585794 ((_ extract 183 176) ?x1341732)))
 (let (($x1355613 (= (_ bv0 8) ?x1585794)))
 (let ((?x1585772 (ite $x1355613 (_ bv576460752303355720 64) ?x1586137)))
 (let ((?x1586059 ((_ extract 191 184) ?x1341732)))
 (let (($x1329245 (= (_ bv0 8) ?x1586059)))
 (let ((?x1585607 (ite $x1329245 (_ bv576460752303355719 64) ?x1585772)))
 (let ((?x1586057 ((_ extract 199 192) ?x1341732)))
 (let (($x1329232 (= (_ bv0 8) ?x1586057)))
 (let ((?x1585754 (ite $x1329232 (_ bv576460752303355718 64) ?x1585607)))
 (let ((?x1585827 ((_ extract 207 200) ?x1341732)))
 (let (($x1329231 (= (_ bv0 8) ?x1585827)))
 (let ((?x1585743 (ite $x1329231 (_ bv576460752303355717 64) ?x1585754)))
 (let ((?x1585928 ((_ extract 215 208) ?x1341732)))
 (let (($x1328958 (= (_ bv0 8) ?x1585928)))
 (let ((?x1586183 (ite $x1328958 (_ bv576460752303355716 64) ?x1585743)))
 (let ((?x1585918 ((_ extract 223 216) ?x1341732)))
 (let (($x1354846 (= (_ bv0 8) ?x1585918)))
 (let ((?x1585818 (ite $x1354846 (_ bv576460752303355715 64) ?x1586183)))
 (let ((?x1586119 ((_ extract 231 224) ?x1341732)))
 (let (($x1350933 (= (_ bv0 8) ?x1586119)))
 (let ((?x1585884 (ite $x1350933 (_ bv576460752303355714 64) ?x1585818)))
 (let ((?x1585786 ((_ extract 239 232) ?x1341732)))
 (let (($x5462 (= (_ bv0 8) ?x1585786)))
 (let ((?x1586066 (ite $x5462 (_ bv576460752303355713 64) ?x1585884)))
 (let ((?x1357432 ((_ extract 247 240) ?x1341732)))
 (let (($x1355541 (= (_ bv0 8) ?x1357432)))
 (let ((?x1585948 (ite $x1355541 (_ bv576460752303355712 64) ?x1586066)))
 (let ((?x1586062 (bvsub ?x1585948 (_ bv576460752303355712 64))))
 (= ?x1586062 strlen_8285_64)))))))))))))))))))))))))))))))))))))))))))))))))))))))))))))))))))))))))))))))))))))))))))))))))))))))))))))))))))))))))))))))))))))))))))))))))))))))))))))))))))))))))))))))))))))))))))))))))))))))))))))))))))))))))))))))))))))))))))))))))))))))))
(maximize access_3098_32)
(maximize strncmp_ret_86_32)
(minimize strncmp_ret_86_32)
(minimize strlen_5312_64)
(maximize strlen_83_64)
(minimize mem_7fffffffffef425_984_64)
(minimize mem_7fffffffffef030_345_64)
(minimize syscall_stub_newfstatat_124_64)
(maximize strlen_986_64)
(maximize mem_7fffffffffef425_984_64)
(minimize mem_7fffffffffef038_297_64)
(maximize mem_7fffffffffef038_297_64)
(maximize access_2286_32)
(minimize mem_7fffffffffef048_398_32)
(maximize mem_7fffffffffef058_431_64)
(minimize mem_7fffffffffef740_6391_248)
(minimize access_3098_32)
(maximize syscall_stub_newfstatat_220_64)
(maximize syscall_stub_newfstatat_124_64)
(maximize strlen_5312_64)
(minimize strlen_85_64)
(maximize mem_7fffffffffeefa8_298_64)
(maximize strlen_8285_64)
(minimize syscall_stub_newfstatat_220_64)
(minimize mem_7fffffffffeefa8_298_64)
(maximize syscall_stub_readlink_160_64)
(minimize mem_7fffffffffeefa0_344_64)
(maximize args_1_8)
(maximize mem_7fffffffffef048_398_32)
(maximize mem_7fffffffffeefa0_344_64)
(maximize mem_7fffffffffef030_345_64)
(minimize mem_2c_5311_264)
(maximize strncmp_ret_84_32)
(minimize syscall_stub_ioctl_95_32)
(maximize mem_7fffffffffeefc8_430_64)
(maximize mem_7fffffffffef740_6391_248)
(minimize mem_7fffffffffef420_174_8)
(maximize filesize_file_0_/proc/self/loginuid_88_64)
(minimize strlen_8285_64)
(maximize mem_2c_5311_264)
(minimize mem_7fffffffffeefc8_430_64)
(check-sat)
(get-objectives)
